[on. 05. april 13:08:44 +0200 2023]  ./input/alternate_g_np_100/100-3-1.gcc
Set parameter Username
Academic license - for non-commercial use only - expires 2024-03-28
Set parameter TimeLimit to value 1800
Set parameter PreCrush to value 1
Set parameter LazyConstraints to value 1
Gurobi Optimizer version 10.0.1 build v10.0.1rc0 (linux64)

CPU model: AMD Ryzen 9 5950X 16-Core Processor, instruction set [SSE2|AVX|AVX2]
Thread count: 16 physical cores, 32 logical processors, using up to 32 threads

Optimize a model with 109 rows, 1000 columns and 2800 nonzeros
Model fingerprint: 0xb02f1988
Variable types: 0 continuous, 1000 integer (1000 binary)
Coefficient statistics:
  Matrix range     [1e+00, 1e+00]
  Objective range  [2e+00, 1e+02]
  Bounds range     [1e+00, 1e+00]
  RHS range        [1e+00, 1e+00]
Presolve added 8 rows and 8 columns
Presolve time: 0.00s
Presolved: 117 rows, 1008 columns, 2024 nonzeros
Variable types: 0 continuous, 1008 integer (1000 binary)

Root relaxation: objective 5.139000e+03, 1 iterations, 0.00 seconds (0.00 work units)

    Nodes    |    Current Node    |     Objective Bounds      |     Work
 Expl Unexpl |  Obj  Depth IntInf | Incumbent    BestBd   Gap | It/Node Time

     0     0 5139.00000    0    -          - 5139.00000      -     -    0s
     0     0 5139.00000    0    -          - 5139.00000      -     -    0s
     0     0 5139.00000    0    -          - 5139.00000      -     -    0s
     0     0 5139.00000    0    -          - 5139.00000      -     -    0s
     0     0 5139.00000    0   24          - 5139.00000      -     -    0s
     0     0 5139.00000    0   11          - 5139.00000      -     -    0s
     0     0 5139.00000    0    -          - 5139.00000      -     -    0s
     0     0 5139.00000    0    -          - 5139.00000      -     -    0s
     0     0 5139.00000    0    8          - 5139.00000      -     -    0s
     0     0 5139.00000    0    -          - 5139.00000      -     -    0s
     0     0 5139.00000    0    9          - 5139.00000      -     -    0s
     0     2 5139.00000    0    5          - 5139.00000      -     -    0s
H 8563  4705                    5042.0000000 5139.00000  1.92%  12.7    2s
H 8565  4470                    5125.0000000 5139.00000  0.27%  12.7    2s
H 8567  4248                    5135.0000000 5139.00000  0.08%  12.7    2s
H 8570  4037                    5139.0000000 5139.00000  0.00%  12.7    2s

Cutting planes:
  User: 43
  Gomory: 1
  Flow cover: 2
  GUB cover: 1
  Lazy constraints: 90

Explored 8570 nodes (109540 simplex iterations) in 2.75 seconds (0.63 work units)
Thread count was 32 (of 32 available processors)

Solution count 4: 5139 5135 5125 5042 

Optimal solution found (tolerance 1.00e-04)
Best objective 5.139000000000e+03, best bound 5.139000000000e+03, gap 0.0000%

User-callback calls 17554, time in user-callback 1.57 sec
Minimal separator inequalities added: 85537
Indegree inequalities added: 0
Passed solution check
[on. 05. april 13:08:46 +0200 2023]  done

